data;

param n:=23;
param p:=3;
param r:=[1] 0 [2] 0 [3] 0 [4] 0 [5] 7 [6] 13 [7] 4 [8] 11 [9] 17 [10] 8 [11] 13 [12] 17 [13] 32 [14] 26 [15] 42 [16] 18 [17] 18 [18] 17 [19] 9 [20] 8 [21] 34 [22] 47 [23] 24 ;
param w:=[1] 40 [2] 89 [3] 47 [4] 41 [5] 91 [6] 8 [7] 14 [8] 58 [9] 78 [10] 64 [11] 31 [12] 7 [13] 20 [14] 30 [15] 67 [16] 1 [17] 83 [18] 48 [19] 70 [20] 96 [21] 78 [22] 28 [23] 7 ;

end;
